objective value:                                11818
t_x_3                                               1 	(obj:83)
t_x_5                                               1 	(obj:47)
t_x_6                                               1 	(obj:1)
t_x_7                                               1 	(obj:63)
t_x_10                                              1 	(obj:13)
t_x_11                                              1 	(obj:54)
t_x_13                                              1 	(obj:42)
t_x_14                                              1 	(obj:35)
t_x_16                                              1 	(obj:33)
t_x_21                                              1 	(obj:4)
t_x_24                                              1 	(obj:11)
t_x_25                                              1 	(obj:58)
t_x_26                                              1 	(obj:22)
t_x_27                                              1 	(obj:14)
t_x_29                                              1 	(obj:56)
t_x_33                                              1 	(obj:7)
t_x_35                                              1 	(obj:45)
t_x_45                                              1 	(obj:30)
t_x_50                                              1 	(obj:16)
t_x_52                                              1 	(obj:52)
t_x_56                                              1 	(obj:60)
t_x_59                                              1 	(obj:37)
t_x_63                                              1 	(obj:21)
t_x_64                                              1 	(obj:22)
t_x_67                                              1 	(obj:16)
t_x_68                                              1 	(obj:2)
t_x_70                                              1 	(obj:47)
t_x_72                                              1 	(obj:2)
t_x_73                                              1 	(obj:22)
t_x_76                                              1 	(obj:5)
t_x_80                                              1 	(obj:1)
t_x_84                                              1 	(obj:3)
t_x_88                                              1 	(obj:29)
t_x_90                                              1 	(obj:30)
t_x_91                                              1 	(obj:16)
t_x_92                                              1 	(obj:30)
t_x_93                                              1 	(obj:24)
t_x_95                                              1 	(obj:7)
t_x_96                                              1 	(obj:1)
t_x_97                                              1 	(obj:16)
t_x_107                                             1 	(obj:6)
t_x_110                                             1 	(obj:27)
t_x_116                                             1 	(obj:11)
t_x_121                                             1 	(obj:0)
t_x_125                                             1 	(obj:13)
t_x_126                                             1 	(obj:4)
t_x_127                                             1 	(obj:7)
t_x_128                                             1 	(obj:34)
t_x_129                                             1 	(obj:36)
t_x_134                                             1 	(obj:27)
t_x_137                                             1 	(obj:11)
t_x_140                                             1 	(obj:1)
t_x_142                                             1 	(obj:28)
t_x_143                                             1 	(obj:20)
t_x_146                                             1 	(obj:15)
t_x_147                                             1 	(obj:17)
t_x_151                                             1 	(obj:5)
t_x_152                                             1 	(obj:25)
t_x_154                                             1 	(obj:39)
t_x_155                                             1 	(obj:34)
t_x_158                                             1 	(obj:9)
t_x_159                                             1 	(obj:5)
t_x_160                                             1 	(obj:4)
t_x_168                                             1 	(obj:18)
t_x_170                                             1 	(obj:32)
t_x_172                                             1 	(obj:13)
t_x_179                                             1 	(obj:11)
t_x_185                                             1 	(obj:10)
t_x_186                                             1 	(obj:19)
t_x_188                                             1 	(obj:19)
t_x_193                                             1 	(obj:18)
t_x_194                                             1 	(obj:55)
t_x_198                                             1 	(obj:8)
t_x_199                                             1 	(obj:14)
t_x_202                                             1 	(obj:11)
t_x_207                                             1 	(obj:11)
t_x_214                                             1 	(obj:19)
t_x_216                                             1 	(obj:7)
t_x_219                                             1 	(obj:44)
t_x_228                                             1 	(obj:16)
t_x_231                                             1 	(obj:3)
t_x_241                                             1 	(obj:38)
t_x_246                                             1 	(obj:9)
t_x_250                                             1 	(obj:3)
t_x_252                                             1 	(obj:8)
t_x_253                                             1 	(obj:19)
t_x_254                                             1 	(obj:8)
t_x_255                                             1 	(obj:4)
t_x_256                                             1 	(obj:46)
t_x_263                                             1 	(obj:28)
t_x_264                                             1 	(obj:16)
t_x_265                                             1 	(obj:15)
t_x_269                                             1 	(obj:32)
t_x_272                                             1 	(obj:29)
t_x_274                                             1 	(obj:6)
t_x_275                                             1 	(obj:16)
t_x_276                                             1 	(obj:33)
t_x_279                                             1 	(obj:1)
t_x_280                                             1 	(obj:19)
t_x_286                                             1 	(obj:12)
t_x_291                                             1 	(obj:4)
t_x_294                                             1 	(obj:19)
t_x_295                                             1 	(obj:19)
t_x_297                                             1 	(obj:10)
t_x_304                                             1 	(obj:40)
t_x_305                                             1 	(obj:3)
t_x_306                                             1 	(obj:71)
t_x_311                                             1 	(obj:11)
t_x_314                                             1 	(obj:18)
t_x_318                                             1 	(obj:28)
t_x_321                                             1 	(obj:5)
t_x_326                                             1 	(obj:4)
t_x_330                                             1 	(obj:53)
t_x_331                                             1 	(obj:38)
t_x_337                                             1 	(obj:14)
t_x_338                                             1 	(obj:25)
t_x_339                                             1 	(obj:30)
t_x_341                                             1 	(obj:1)
t_x_343                                             1 	(obj:17)
t_x_347                                             1 	(obj:10)
t_x_354                                             1 	(obj:7)
t_x_357                                             1 	(obj:1)
t_x_358                                             1 	(obj:0)
t_x_361                                             1 	(obj:14)
t_x_363                                             1 	(obj:14)
t_x_364                                             1 	(obj:10)
t_x_366                                             1 	(obj:10)
t_x_368                                             1 	(obj:15)
t_x_371                                             1 	(obj:2)
t_x_372                                             1 	(obj:31)
t_x_375                                             1 	(obj:26)
t_x_386                                             1 	(obj:34)
t_x_392                                             1 	(obj:5)
t_x_395                                             1 	(obj:11)
t_x_397                                             1 	(obj:14)
t_x_401                                             1 	(obj:46)
t_x_404                                             1 	(obj:34)
t_x_405                                             1 	(obj:27)
t_x_406                                             1 	(obj:16)
t_x_410                                             1 	(obj:14)
t_x_411                                             1 	(obj:1)
t_x_413                                             1 	(obj:10)
t_x_416                                             1 	(obj:17)
t_x_418                                             1 	(obj:24)
t_x_419                                             1 	(obj:32)
t_x_421                                             1 	(obj:37)
t_x_422                                             1 	(obj:25)
t_x_423                                             1 	(obj:42)
t_x_433                                             1 	(obj:11)
t_x_435                                             1 	(obj:33)
t_x_438                                             1 	(obj:7)
t_x_441                                             1 	(obj:21)
t_x_446                                             1 	(obj:0)
t_x_448                                             1 	(obj:10)
t_x_456                                             1 	(obj:0)
t_x_458                                             1 	(obj:35)
t_x_459                                             1 	(obj:27)
t_x_463                                             1 	(obj:41)
t_x_465                                             1 	(obj:4)
t_x_467                                             1 	(obj:11)
t_x_471                                             1 	(obj:11)
t_x_472                                             1 	(obj:19)
t_x_473                                             1 	(obj:5)
t_x_476                                             1 	(obj:5)
t_x_477                                             1 	(obj:53)
t_x_478                                             1 	(obj:13)
t_x_479                                             1 	(obj:21)
t_x_480                                             1 	(obj:63)
t_x_482                                             1 	(obj:19)
t_x_483                                             1 	(obj:38)
t_x_488                                             1 	(obj:13)
t_x_495                                             1 	(obj:16)
t_x_497                                             1 	(obj:8)
t_x_498                                             1 	(obj:3)
t_x_509                                             1 	(obj:34)
t_x_511                                             1 	(obj:4)
t_x_516                                             1 	(obj:20)
t_x_517                                             1 	(obj:6)
t_x_518                                             1 	(obj:29)
t_x_519                                             1 	(obj:4)
t_x_521                                             1 	(obj:23)
t_x_525                                             1 	(obj:4)
t_x_527                                             1 	(obj:1)
t_x_534                                             1 	(obj:13)
t_x_539                                             1 	(obj:14)
t_x_541                                             1 	(obj:29)
t_x_542                                             1 	(obj:18)
t_x_545                                             1 	(obj:8)
t_x_546                                             1 	(obj:23)
t_x_547                                             1 	(obj:3)
t_x_552                                             1 	(obj:3)
t_x_554                                             1 	(obj:19)
t_x_555                                             1 	(obj:7)
t_x_560                                             1 	(obj:23)
t_x_563                                             1 	(obj:5)
t_x_571                                             1 	(obj:0)
t_x_572                                             1 	(obj:7)
t_x_573                                             1 	(obj:0)
t_x_574                                             1 	(obj:20)
t_x_578                                             1 	(obj:7)
t_x_590                                             1 	(obj:18)
t_x_594                                             1 	(obj:41)
t_x_595                                             1 	(obj:12)
t_x_604                                             1 	(obj:33)
t_x_610                                             1 	(obj:8)
t_x_611                                             1 	(obj:27)
t_x_613                                             1 	(obj:9)
t_x_615                                             1 	(obj:37)
t_x_617                                             1 	(obj:5)
t_x_619                                             1 	(obj:2)
t_x_620                                             1 	(obj:17)
t_x_626                                             1 	(obj:11)
t_x_633                                             1 	(obj:5)
t_x_640                                             1 	(obj:34)
t_x_641                                             1 	(obj:2)
t_x_642                                             1 	(obj:3)
t_x_648                                             1 	(obj:4)
t_x_649                                             1 	(obj:14)
t_x_650                                             1 	(obj:2)
t_x_652                                             1 	(obj:42)
t_x_655                                             1 	(obj:12)
t_x_660                                             1 	(obj:21)
t_x_662                                             1 	(obj:4)
t_x_664                                             1 	(obj:31)
t_x_665                                             1 	(obj:7)
t_x_666                                             1 	(obj:22)
t_x_668                                             1 	(obj:28)
t_x_677                                             1 	(obj:18)
t_x_685                                             1 	(obj:8)
t_x_686                                             1 	(obj:8)
t_x_690                                             1 	(obj:10)
t_x_699                                             1 	(obj:11)
t_x_701                                             1 	(obj:12)
t_x_711                                             1 	(obj:21)
t_x_712                                             1 	(obj:3)
t_x_715                                             1 	(obj:1)
t_x_720                                             1 	(obj:8)
t_x_724                                             1 	(obj:12)
t_x_726                                             1 	(obj:8)
t_x_729                                             1 	(obj:27)
t_x_731                                             1 	(obj:2)
t_x_732                                             1 	(obj:12)
t_x_733                                             1 	(obj:5)
t_x_734                                             1 	(obj:22)
t_x_735                                             1 	(obj:61)
t_x_743                                             1 	(obj:25)
t_x_745                                             1 	(obj:14)
t_x_746                                             1 	(obj:6)
t_x_750                                             1 	(obj:9)
t_x_752                                             1 	(obj:3)
t_x_758                                             1 	(obj:5)
t_x_760                                             1 	(obj:9)
t_x_762                                             1 	(obj:41)
t_x_763                                             1 	(obj:3)
t_x_764                                             1 	(obj:13)
t_x_766                                             1 	(obj:22)
t_x_768                                             1 	(obj:4)
t_x_769                                             1 	(obj:5)
t_x_772                                             1 	(obj:16)
t_x_780                                             1 	(obj:38)
t_x_782                                             1 	(obj:0)
t_x_784                                             1 	(obj:10)
t_x_785                                             1 	(obj:39)
t_x_789                                             1 	(obj:2)
t_x_793                                             1 	(obj:4)
t_x_805                                             1 	(obj:48)
t_x_811                                             1 	(obj:29)
t_x_815                                             1 	(obj:2)
t_x_821                                             1 	(obj:52)
t_x_822                                             1 	(obj:19)
t_x_823                                             1 	(obj:39)
t_x_824                                             1 	(obj:17)
t_x_830                                             1 	(obj:2)
t_x_836                                             1 	(obj:10)
t_x_838                                             1 	(obj:22)
t_x_845                                             1 	(obj:2)
t_x_848                                             1 	(obj:12)
t_x_850                                             1 	(obj:44)
t_x_851                                             1 	(obj:10)
t_x_853                                             1 	(obj:20)
t_x_855                                             1 	(obj:42)
t_x_857                                             1 	(obj:17)
t_x_858                                             1 	(obj:44)
t_x_859                                             1 	(obj:5)
t_x_864                                             1 	(obj:23)
t_x_865                                             1 	(obj:11)
t_x_867                                             1 	(obj:8)
t_x_870                                             1 	(obj:15)
t_x_874                                             1 	(obj:31)
t_x_876                                             1 	(obj:27)
t_x_882                                             1 	(obj:0)
t_x_883                                             1 	(obj:19)
t_x_900                                             1 	(obj:4)
t_x_902                                             1 	(obj:10)
t_x_904                                             1 	(obj:4)
t_x_909                                             1 	(obj:2)
t_x_917                                             1 	(obj:66)
t_x_920                                             1 	(obj:23)
t_x_922                                             1 	(obj:6)
t_x_924                                             1 	(obj:13)
t_x_926                                             1 	(obj:11)
t_x_930                                             1 	(obj:18)
t_x_931                                             1 	(obj:10)
t_x_935                                             1 	(obj:32)
t_x_939                                             1 	(obj:2)
t_x_940                                             1 	(obj:16)
t_x_941                                             1 	(obj:44)
t_x_944                                             1 	(obj:47)
t_x_947                                             1 	(obj:1)
t_x_955                                             1 	(obj:30)
t_x_956                                             1 	(obj:5)
t_x_957                                             1 	(obj:3)
t_x_960                                             1 	(obj:21)
t_x_964                                             1 	(obj:5)
t_x_965                                             1 	(obj:19)
t_x_967                                             1 	(obj:14)
t_x_969                                             1 	(obj:21)
t_x_984                                             1 	(obj:9)
t_x_986                                             1 	(obj:34)
t_x_996                                             1 	(obj:16)
t_x_997                                             1 	(obj:2)
t_x_999                                             1 	(obj:6)
t_x_1002                                            1 	(obj:43)
t_x_1011                                            1 	(obj:19)
t_x_1017                                            1 	(obj:33)
t_x_1019                                            1 	(obj:26)
t_x_1021                                            1 	(obj:17)
t_x_1024                                            1 	(obj:29)
t_x_1025                                            1 	(obj:13)
t_x_1026                                            1 	(obj:0)
t_x_1028                                            1 	(obj:56)
t_x_1035                                            1 	(obj:4)
t_x_1036                                            1 	(obj:7)
t_x_1037                                            1 	(obj:26)
t_x_1038                                            1 	(obj:45)
t_x_1044                                            1 	(obj:1)
t_x_1046                                            1 	(obj:11)
t_x_1058                                            1 	(obj:14)
t_x_1065                                            1 	(obj:10)
t_x_1069                                            1 	(obj:30)
t_x_1073                                            1 	(obj:47)
t_x_1077                                            1 	(obj:23)
t_x_1079                                            1 	(obj:0)
t_x_1090                                            1 	(obj:11)
t_x_1091                                            1 	(obj:7)
t_x_1099                                            1 	(obj:11)
t_x_1100                                            1 	(obj:65)
t_x_1101                                            1 	(obj:20)
t_x_1104                                            1 	(obj:12)
t_x_1105                                            1 	(obj:33)
t_x_1109                                            1 	(obj:36)
t_x_1111                                            1 	(obj:39)
t_x_1112                                            1 	(obj:54)
t_x_1116                                            1 	(obj:25)
t_x_1118                                            1 	(obj:8)
t_x_1123                                            1 	(obj:24)
t_x_1126                                            1 	(obj:27)
t_x_1128                                            1 	(obj:7)
t_x_1135                                            1 	(obj:35)
t_x_1137                                            1 	(obj:10)
t_x_1139                                            1 	(obj:48)
t_x_1141                                            1 	(obj:1)
t_x_1146                                            1 	(obj:49)
t_x_1148                                            1 	(obj:29)
t_x_1155                                            1 	(obj:12)
t_x_1158                                            1 	(obj:8)
t_x_1160                                            1 	(obj:13)
t_x_1162                                            1 	(obj:17)
t_x_1163                                            1 	(obj:0)
t_x_1165                                            1 	(obj:6)
t_x_1168                                            1 	(obj:23)
t_x_1172                                            1 	(obj:30)
t_x_1173                                            1 	(obj:16)
t_x_1176                                            1 	(obj:19)
t_x_1177                                            1 	(obj:8)
t_x_1180                                            1 	(obj:27)
t_x_1182                                            1 	(obj:1)
t_x_1185                                            1 	(obj:11)
t_x_1186                                            1 	(obj:1)
t_x_1196                                            1 	(obj:39)
t_x_1209                                            1 	(obj:28)
t_x_1212                                            1 	(obj:16)
t_x_1213                                            1 	(obj:14)
t_x_1215                                            1 	(obj:60)
t_x_1219                                            1 	(obj:2)
t_x_1224                                            1 	(obj:28)
t_x_1227                                            1 	(obj:60)
t_x_1229                                            1 	(obj:1)
t_x_1240                                            1 	(obj:3)
t_x_1243                                            1 	(obj:5)
t_x_1244                                            1 	(obj:16)
t_x_1245                                            1 	(obj:10)
t_x_1247                                            1 	(obj:16)
t_x_1254                                            1 	(obj:17)
t_x_1257                                            1 	(obj:14)
t_x_1259                                            1 	(obj:30)
t_x_1261                                            1 	(obj:19)
t_x_1264                                            1 	(obj:2)
t_x_1266                                            1 	(obj:9)
t_x_1273                                            1 	(obj:13)
t_x_1276                                            1 	(obj:31)
t_x_1279                                            1 	(obj:10)
t_x_1281                                            1 	(obj:16)
t_x_1286                                            1 	(obj:10)
t_x_1289                                            1 	(obj:12)
t_x_1291                                            1 	(obj:35)
t_x_1293                                            1 	(obj:13)
t_x_1295                                            1 	(obj:18)
t_x_1298                                            1 	(obj:0)
t_x_1301                                            1 	(obj:11)
t_x_1302                                            1 	(obj:0)
t_x_1303                                            1 	(obj:30)
t_x_1304                                            1 	(obj:8)
t_x_1307                                            1 	(obj:26)
t_x_1308                                            1 	(obj:18)
t_x_1312                                            1 	(obj:13)
t_x_1313                                            1 	(obj:34)
t_x_1315                                            1 	(obj:4)
t_x_1317                                            1 	(obj:18)
t_x_1318                                            1 	(obj:44)
t_x_1319                                            1 	(obj:23)
t_x_1320                                            1 	(obj:27)
t_x_1321                                            1 	(obj:29)
t_x_1322                                            1 	(obj:50)
t_x_1323                                            1 	(obj:14)
t_x_1325                                            1 	(obj:4)
t_x_1326                                            1 	(obj:5)
t_x_1337                                            1 	(obj:53)
t_x_1346                                            1 	(obj:33)
t_x_1347                                            1 	(obj:46)
t_x_1349                                            1 	(obj:30)
t_x_1352                                            1 	(obj:1)
t_x_1358                                            1 	(obj:6)
t_x_1360                                            1 	(obj:3)
t_x_1368                                            1 	(obj:43)
t_x_1370                                            1 	(obj:2)
t_x_1372                                            1 	(obj:39)
t_x_1373                                            1 	(obj:27)
t_x_1375                                            1 	(obj:7)
t_x_1377                                            1 	(obj:10)
t_x_1378                                            1 	(obj:8)
t_x_1384                                            1 	(obj:2)
t_x_1388                                            1 	(obj:0)
t_x_1389                                            1 	(obj:31)
t_x_1395                                            1 	(obj:30)
t_x_1396                                            1 	(obj:78)
t_x_1397                                            1 	(obj:0)
t_x_1400                                            1 	(obj:10)
t_x_1407                                            1 	(obj:27)
t_x_1409                                            1 	(obj:65)
t_x_1411                                            1 	(obj:25)
t_x_1413                                            1 	(obj:12)
t_x_1415                                            1 	(obj:18)
t_x_1417                                            1 	(obj:7)
t_x_1421                                            1 	(obj:12)
t_x_1424                                            1 	(obj:36)
t_x_1426                                            1 	(obj:50)
t_x_1431                                            1 	(obj:12)
t_x_1433                                            1 	(obj:11)
t_x_1434                                            1 	(obj:34)
t_x_1441                                            1 	(obj:13)
t_x_1444                                            1 	(obj:21)
t_x_1448                                            1 	(obj:23)
t_x_1455                                            1 	(obj:19)
t_x_1456                                            1 	(obj:8)
t_x_1460                                            1 	(obj:30)
t_x_1461                                            1 	(obj:24)
t_x_1469                                            1 	(obj:4)
t_x_1476                                            1 	(obj:13)
t_x_1486                                            1 	(obj:51)
t_x_1487                                            1 	(obj:2)
t_x_1488                                            1 	(obj:44)
t_x_1489                                            1 	(obj:2)
t_x_1490                                            1 	(obj:35)
t_x_1496                                            1 	(obj:3)
t_x_1504                                            1 	(obj:52)
t_x_1507                                            1 	(obj:16)
t_x_1512                                            1 	(obj:38)
t_x_1513                                            1 	(obj:13)
t_x_1523                                            1 	(obj:31)
t_x_1526                                            1 	(obj:51)
t_x_1530                                            1 	(obj:57)
t_x_1535                                            1 	(obj:16)
t_x_1538                                            1 	(obj:23)
t_x_1540                                            1 	(obj:16)
t_x_1542                                            1 	(obj:11)
t_x_1544                                            1 	(obj:13)
t_x_1545                                            1 	(obj:70)
t_x_1554                                            1 	(obj:36)
t_x_1566                                            1 	(obj:11)
t_x_1574                                            1 	(obj:5)
t_x_1579                                            1 	(obj:35)
t_x_1580                                            1 	(obj:6)
t_x_1583                                            1 	(obj:17)
t_x_1586                                            1 	(obj:9)
t_x_1587                                            1 	(obj:18)
t_x_1588                                            1 	(obj:39)
t_x_1589                                            1 	(obj:12)
t_x_1595                                            1 	(obj:4)
t_x_1596                                            1 	(obj:12)
t_x_1599                                            1 	(obj:3)
t_x_1602                                            1 	(obj:44)
t_x_1607                                            1 	(obj:40)
t_x_1612                                            1 	(obj:37)
t_x_1616                                            1 	(obj:37)
t_x_1617                                            1 	(obj:12)
t_x_1623                                            1 	(obj:15)
t_x_1626                                            1 	(obj:3)
t_x_1628                                            1 	(obj:9)
t_x_1636                                            1 	(obj:9)
t_x_1637                                            1 	(obj:3)
t_x_1646                                            1 	(obj:30)
t_x_1648                                            1 	(obj:0)
t_x_1656                                            1 	(obj:8)
t_x_1657                                            1 	(obj:14)
t_x_1659                                            1 	(obj:5)
t_x_1665                                            1 	(obj:1)
t_x_1672                                            1 	(obj:39)
t_x_1675                                            1 	(obj:20)
t_x_1680                                            1 	(obj:21)
t_x_1681                                            1 	(obj:17)
t_x_1682                                            1 	(obj:7)
t_x_1688                                            1 	(obj:41)
t_x_1689                                            1 	(obj:6)
t_x_1693                                            1 	(obj:3)
t_x_1697                                            1 	(obj:13)
t_x_1698                                            1 	(obj:52)
t_x_1712                                            1 	(obj:17)
t_x_1718                                            1 	(obj:8)
t_x_1723                                            1 	(obj:26)
t_x_1724                                            1 	(obj:45)
t_x_1728                                            1 	(obj:12)
t_x_1729                                            1 	(obj:51)
t_x_1732                                            1 	(obj:5)
t_x_1735                                            1 	(obj:16)
t_x_1739                                            1 	(obj:1)
t_x_1741                                            1 	(obj:4)
t_x_1744                                            1 	(obj:43)
t_x_1751                                            1 	(obj:9)
t_x_1753                                            1 	(obj:14)
t_x_1759                                            1 	(obj:32)
t_x_1766                                            1 	(obj:55)
t_x_1767                                            1 	(obj:23)
t_x_1769                                            1 	(obj:29)
t_x_1771                                            1 	(obj:8)
t_x_1773                                            1 	(obj:37)
t_x_1777                                            1 	(obj:21)
t_x_1780                                            1 	(obj:12)
t_x_1784                                            1 	(obj:4)
t_x_1792                                            1 	(obj:9)
t_x_1795                                            1 	(obj:5)
t_x_1800                                            1 	(obj:6)
t_x_1803                                            1 	(obj:38)
t_x_1810                                            1 	(obj:1)
t_x_1812                                            1 	(obj:18)
t_x_1813                                            1 	(obj:7)
t_x_1816                                            1 	(obj:34)
t_x_1821                                            1 	(obj:8)
t_x_1825                                            1 	(obj:29)
t_x_1826                                            1 	(obj:25)
t_x_1831                                            1 	(obj:9)
t_x_1835                                            1 	(obj:22)
t_x_1838                                            1 	(obj:17)
t_x_1842                                            1 	(obj:18)
t_x_1847                                            1 	(obj:1)
t_x_1849                                            1 	(obj:7)
t_x_1855                                            1 	(obj:10)
t_x_1859                                            1 	(obj:56)
t_x_1864                                            1 	(obj:1)
t_x_1867                                            1 	(obj:10)
t_x_1869                                            1 	(obj:57)
t_x_1871                                            1 	(obj:23)
t_x_1873                                            1 	(obj:4)
t_x_1883                                            1 	(obj:26)
t_x_1887                                            1 	(obj:30)
t_x_1889                                            1 	(obj:35)
t_x_1890                                            1 	(obj:32)
t_x_1895                                            1 	(obj:66)
t_x_1898                                            1 	(obj:20)
t_x_1899                                            1 	(obj:7)
t_x_1900                                            1 	(obj:22)
t_x_1902                                            1 	(obj:40)
t_x_1906                                            1 	(obj:16)
t_x_1913                                            1 	(obj:1)
t_x_1916                                            1 	(obj:75)
t_x_1919                                            1 	(obj:11)
t_x_1920                                            1 	(obj:0)
t_x_1921                                            1 	(obj:2)
t_x_1922                                            1 	(obj:44)
t_x_1924                                            1 	(obj:33)
t_x_1926                                            1 	(obj:30)
t_x_1933                                            1 	(obj:15)
t_x_1934                                            1 	(obj:51)
t_x_1936                                            1 	(obj:60)
t_x_1947                                            1 	(obj:21)
t_x_1953                                            1 	(obj:14)
t_x_1958                                            1 	(obj:3)
t_x_1963                                            1 	(obj:0)
t_x_1970                                            1 	(obj:0)
t_x_1971                                            1 	(obj:10)
t_x_1972                                            1 	(obj:16)
t_x_1974                                            1 	(obj:6)
t_x_1981                                            1 	(obj:18)
t_x_1985                                            1 	(obj:21)
t_x_1989                                            1 	(obj:5)
t_x_1991                                            1 	(obj:8)
t_x_1992                                            1 	(obj:13)
t_x_1998                                            1 	(obj:11)
